NAME: wi29
COMMENT: Gabriela, Higor, Vitor - Twice-Around-the-Tree com 2-Opt
TYPE: TOUR
DIMENSION: 29
TOTAL WEIGHT: 29224
TOUR_SECTION
1
2
6
10
11
15
19
22
23
21
29
28
26
20
25
27
24
16
17
18
14
13
12
8
9
7
3
4
5
EOF
